data;


param FN:= 4;
param D:= 100;
param U_Original:=
         1         1       -1.125314e+00
         2         1        2.054192e-01
         3         1        2.692525e+00
         4         1       -1.312451e-01
         5         1        1.390850e+00
         6         1        6.179468e-01
         7         1        2.497700e-01
         8         1        1.421641e+00
         9         1       -1.523943e+00
        10         1        3.651384e-01
        11         1       -5.327736e-01
        12         1        1.381147e+00
        13         1        3.026511e-01
        14         1        2.008267e+00
        15         1        3.271335e-01
        16         1        1.229153e+00
        17         1       -6.727053e-02
        18         1        4.115963e-01
        19         1       -4.215718e-01
        20         1        7.700003e-01
        21         1       -5.118201e-01
        22         1       -6.125663e-01
        23         1        1.297848e+00
        24         1       -1.456683e-01
        25         1       -1.335776e+00
        26         1       -6.398579e-01
        27         1        6.836853e-01
        28         1        2.655390e+00
        29         1       -8.532224e-01
        30         1        8.997491e-01
        31         1       -4.806857e-01
        32         1        3.861153e-02
        33         1       -7.420170e-01
        34         1        1.165322e+00
        35         1        3.060784e-01
        36         1       -6.454135e-01
        37         1       -4.431484e-01
        38         1        1.886395e+00
        39         1       -6.782827e-01
        40         1       -1.357634e+00
        41         1       -8.837144e-01
        42         1        1.389821e+00
        43         1       -2.334556e+00
        44         1        4.365703e-01
        45         1       -1.786397e-01
        46         1        1.859343e-01
        47         1       -5.770946e-01
        48         1        8.391272e-01
        49         1        2.053630e+00
        50         1        3.623897e-01
        51         1       -3.607158e-01
        52         1       -2.927826e-01
        53         1       -1.056183e+00
        54         1        8.030810e-01
        55         1       -4.607271e-01
        56         1       -1.099692e+00
        57         1        4.580397e-01
        58         1        8.454700e-01
        59         1       -4.577620e-01
        60         1       -2.427368e-02
        61         1       -7.586311e-01
        62         1       -1.595212e+00
        63         1       -4.318776e-01
        64         1       -2.020350e-01
        65         1       -1.402201e+00
        66         1       -4.809888e-01
        67         1       -1.045224e-01
        68         1        7.470198e-01
        69         1       -9.842122e-01
        70         1        7.446794e-01
        71         1        7.037322e-01
        72         1       -8.472771e-01
        73         1        1.008281e+00
        74         1       -9.766290e-01
        75         1        4.351376e-01
        76         1       -7.012737e-01
        77         1        1.682690e+00
        78         1        3.453880e-01
        79         1       -1.544440e+00
        80         1        8.166573e-01
        81         1       -4.796589e-01
        82         1        2.537551e-01
        83         1       -1.722552e+00
        84         1       -3.469914e-01
        85         1        4.740399e-01
        86         1        6.443810e-01
        87         1       -1.125978e+00
        88         1       -3.315685e-02
        89         1        4.466583e-01
        90         1       -3.006702e-01
        91         1        6.113566e-01
        92         1        1.100711e-01
        93         1       -5.238274e-01
        94         1       -1.068671e+00
        95         1       -2.336810e+00
        96         1       -5.168753e-01
        97         1        1.312185e-01
        98         1       -1.078955e-01
        99         1        1.238035e-01
       100         1       -1.602155e+00
         1         2       -3.188493e-01
         2         2        3.737160e-01
         3         2       -1.505870e+00
         4         2       -1.083458e+00
         5         2       -2.145283e+00
         6         2       -1.431091e+00
         7         2        1.226260e+00
         8         2        1.018539e+00
         9         2       -3.477375e-01
        10         2       -2.030948e-01
        11         2        2.197879e-01
        12         2        2.353382e-01
        13         2       -4.523643e-01
        14         2        7.440754e-01
        15         2        1.541921e+00
        16         2       -1.987312e-01
        17         2        4.683249e-01
        18         2       -3.082981e-01
        19         2       -5.119032e-01
        20         2       -3.050048e+00
        21         2        2.516180e+00
        22         2        8.281399e-02
        23         2        1.121712e+00
        24         2        9.385842e-01
        25         2        1.168971e-02
        26         2        3.267456e-01
        27         2       -1.450014e-01
        28         2       -4.838058e-01
        29         2       -3.350769e+00
        30         2       -1.268962e+00
        31         2       -5.322446e-01
        32         2       -6.681616e-01
        33         2       -9.513747e-01
        34         2        8.393926e-01
        35         2       -3.673860e-01
        36         2       -6.142560e-01
        37         2       -1.136507e+00
        38         2        1.349879e+00
        39         2        1.553173e+00
        40         2        1.014021e+00
        41         2       -6.328526e-01
        42         2       -6.535100e-01
        43         2       -9.533733e-01
        44         2        1.390577e+00
        45         2       -2.737961e-01
        46         2       -7.176413e-01
        47         2       -5.419282e-01
        48         2        4.089373e-01
        49         2        1.611677e+00
        50         2        7.777174e-02
        51         2        8.001315e-01
        52         2       -1.582162e-01
        53         2        8.887337e-01
        54         2        2.890547e-01
        55         2       -1.409386e+00
        56         2       -1.913851e-01
        57         2       -2.897470e-01
        58         2       -4.045523e-02
        59         2       -1.496287e-01
        60         2        4.163612e-01
        61         2       -1.381848e+00
        62         2        4.134899e-01
        63         2       -6.760638e-01
        64         2        2.883936e-01
        65         2       -2.117825e-01
        66         2       -1.098935e+00
        67         2       -1.638445e+00
        68         2        2.127778e+00
        69         2        2.820176e-01
        70         2        1.539985e+00
        71         2       -1.613529e-01
        72         2       -3.523212e-01
        73         2        2.009538e+00
        74         2        1.872636e+00
        75         2        1.661684e-01
        76         2        8.540196e-01
        77         2        7.815769e-01
        78         2       -5.314656e-01
        79         2        1.725467e+00
        80         2       -7.002932e-01
        81         2       -1.099267e+00
        82         2       -8.533614e-01
        83         2       -8.455816e-01
        84         2        8.347112e-01
        85         2        1.582422e+00
        86         2        4.123126e-01
        87         2        2.481480e-01
        88         2       -1.806094e+00
        89         2       -4.482825e-01
        90         2       -1.028995e+00
        91         2        3.997055e-01
        92         2       -2.163214e-01
        93         2        1.950557e+00
        94         2        3.257084e-01
        95         2       -8.895287e-01
        96         2        1.496036e+00
        97         2        2.826639e+00
        98         2       -2.378189e-01
        99         2       -1.472846e-01
       100         2       -2.309530e-01
         1         3        3.716848e-01
         2         3       -3.600742e-01
         3         3       -4.646360e-01
         4         3       -3.260996e-01
         5         3       -7.542017e-01
         6         3       -1.464353e+00
         7         3       -1.904204e+00
         8         3       -8.697654e-02
         9         3        1.212055e+00
        10         3       -7.668757e-01
        11         3        5.641222e-01
        12         3       -9.409052e-01
        13         3        1.185872e+00
        14         3       -8.744492e-01
        15         3        3.645961e-01
        16         3        1.321202e+00
        17         3        1.540027e+00
        18         3        8.444253e-03
        19         3        5.802099e-02
        20         3        1.654108e+00
        21         3        5.264041e-01
        22         3       -5.646109e-01
        23         3        2.540459e-01
        24         3       -2.022664e+00
        25         3       -7.426950e-01
        26         3       -3.902702e-01
        27         3        6.844513e-01
        28         3        1.194247e+00
        29         3       -1.565466e+00
        30         3        1.822493e+00
        31         3       -5.951891e-01
        32         3        9.872164e-01
        33         3       -1.370441e+00
        34         3        1.248399e-01
        35         3       -2.281942e-01
        36         3       -4.288050e-01
        37         3       -5.687966e-01
        38         3       -1.024372e-01
        39         3        1.309017e+00
        40         3        1.723675e+00
        41         3       -4.696370e-01
        42         3        2.641457e+00
        43         3       -2.974843e-01
        44         3       -6.022736e-01
        45         3        8.016131e-01
        46         3       -7.686597e-01
        47         3       -9.281787e-01
        48         3       -9.217248e-01
        49         3        1.923470e+00
        50         3       -2.591742e+00
        51         3        2.105887e-01
        52         3        1.776670e-01
        53         3       -9.942835e-01
        54         3        6.525183e-01
        55         3        2.129578e-01
        56         3       -4.276215e-01
        57         3       -1.395237e+00
        58         3       -1.604939e+00
        59         3       -2.397623e+00
        60         3       -9.743173e-01
        61         3       -1.180084e+00
        62         3        1.097750e+00
        63         3        1.577139e+00
        64         3       -1.790188e-01
        65         3        2.915206e-01
        66         3        1.464332e+00
        67         3        1.221358e+00
        68         3        4.815413e-01
        69         3       -5.106544e-01
        70         3       -4.968818e-01
        71         3        5.597683e-01
        72         3       -6.761836e-01
        73         3        9.186069e-01
        74         3       -5.601860e-01
        75         3        7.364123e-01
        76         3        5.298614e-02
        77         3        1.028307e+00
        78         3        1.171288e+00
        79         3       -2.084833e+00
        80         3       -5.985410e-02
        81         3        1.172835e+00
        82         3       -1.042048e+00
        83         3        4.244726e-01
        84         3       -3.525491e-01
        85         3        3.669457e-01
        86         3        2.988450e-01
        87         3       -9.464096e-01
        88         3       -1.163702e+00
        89         3       -9.199696e-02
        90         3        1.382239e-01
        91         3       -2.981878e-01
        92         3       -9.407111e-01
        93         3       -3.785030e-01
        94         3       -5.184277e-01
        95         3       -4.258108e-01
        96         3       -1.835607e+00
        97         3       -1.678212e+00
        98         3        1.753361e+00
        99         3       -1.045138e+00
       100         3       -2.182711e-01
         1         4        4.948213e-01
         2         4        9.074537e-01
         3         4        1.957062e+00
         4         4       -2.705957e-01
         5         4        2.261838e+00
         6         4       -6.033512e-02
         7         4        2.035458e+00
         8         4       -5.964266e-01
         9         4        1.106722e+00
        10         4       -3.417228e-01
        11         4       -1.386039e+00
        12         4        6.487619e-01
        13         4       -7.750056e-01
        14         4        3.845678e-01
        15         4       -2.917307e-01
        16         4        1.256234e+00
        17         4        2.118023e+00
        18         4       -1.855779e+00
        19         4       -5.765228e-01
        20         4       -7.351986e-01
        21         4        1.818521e-01
        22         4        2.985637e+00
        23         4        2.714074e+00
        24         4        1.124692e-01
        25         4        1.697876e+00
        26         4        6.960764e-01
        27         4        2.086103e+00
        28         4        1.999659e+00
        29         4        1.978552e-01
        30         4        3.913194e-01
        31         4        1.165568e+00
        32         4       -5.870433e-01
        33         4       -6.231371e-01
        34         4        5.409225e-01
        35         4        1.647114e+00
        36         4       -3.024189e-01
        37         4       -1.630691e+00
        38         4        2.693670e+00
        39         4        9.937540e-01
        40         4        8.925172e-03
        41         4        7.017203e-01
        42         4       -2.121331e-01
        43         4       -3.307387e-01
        44         4        2.905835e-01
        45         4       -9.489881e-02
        46         4        3.025072e-01
        47         4       -1.565815e+00
        48         4        1.322458e+00
        49         4        2.759271e-01
        50         4        4.282061e-01
        51         4       -1.477714e+00
        52         4       -1.701273e+00
        53         4       -1.121207e+00
        54         4       -7.932565e-01
        55         4       -6.140997e-01
        56         4       -1.638344e-01
        57         4       -5.756745e-01
        58         4        2.269476e-01
        59         4       -1.563776e-01
        60         4        1.174566e+00
        61         4       -9.179979e-02
        62         4        7.019616e-01
        63         4       -1.107474e+00
        64         4       -6.903038e-01
        65         4       -8.082201e-03
        66         4       -5.926915e-01
        67         4       -2.764694e-02
        68         4        1.122354e+00
        69         4        1.328409e-01
        70         4       -1.055485e+00
        71         4        1.001697e+00
        72         4       -2.738564e+00
        73         4       -1.203160e+00
        74         4        2.693991e-01
        75         4        9.946023e-01
        76         4        1.334466e+00
        77         4       -4.132920e-02
        78         4        3.956550e-01
        79         4        8.042033e-01
        80         4       -1.580301e-01
        81         4        1.070498e+00
        82         4        5.794819e-01
        83         4        1.242196e+00
        84         4        7.583900e-01
        85         4       -1.686381e+00
        86         4       -7.265189e-01
        87         4       -2.745067e-01
        88         4       -1.314744e-01
        89         4        1.864418e-01
        90         4        8.764574e-01
        91         4       -1.319297e+00
        92         4       -8.656359e-01
        93         4        2.389497e+00
        94         4        2.501207e-01
        95         4       -1.576919e+00
        96         4       -4.253959e-01
        97         4        2.425944e-01
        98         4       -5.271610e-01
        99         4       -1.372062e-01
       100         4       -1.994501e+00
         1         5       -1.020902e+00
         2         5        4.736496e-02
         3         5        7.276680e-02
         4         5        1.378462e-01
         5         5       -7.496398e-01
         6         5       -2.629843e-02
         7         5        1.928500e+00
         8         5       -8.560358e-01
         9         5        1.428726e+00
        10         5       -1.742867e+00
        11         5        1.710038e-01
        12         5       -7.495602e-01
        13         5       -1.143222e+00
        14         5        1.588352e+00
        15         5        1.091943e-01
        16         5       -1.527082e+00
        17         5        5.110686e-01
        18         5        4.231955e-01
        19         5       -1.568262e+00
        20         5       -1.968353e-01
        21         5       -2.917158e-01
        22         5       -4.646174e-01
        23         5        2.033901e+00
        24         5        6.789943e-01
        25         5       -9.164046e-03
        26         5        1.291366e+00
        27         5        2.372621e+00
        28         5        6.041040e-01
        29         5        1.962073e-01
        30         5       -6.038663e-01
        31         5       -1.625933e-01
        32         5        9.396767e-02
        33         5        5.304070e-01
        34         5        7.466098e-02
        35         5        1.183301e+00
        36         5       -2.919168e-02
        37         5       -6.174716e-01
        38         5        9.620615e-01
        39         5       -5.427939e-01
        40         5        4.767897e-01
        41         5        9.043385e-01
        42         5       -7.099689e-01
        43         5        9.931077e-01
        44         5       -7.998818e-01
        45         5       -5.509099e-01
        46         5        1.965986e+00
        47         5        1.284094e+00
        48         5       -3.529073e-01
        49         5       -1.444651e+00
        50         5       -9.406077e-02
        51         5        8.269065e-02
        52         5       -1.547331e+00
        53         5        6.418844e-01
        54         5        5.550455e-01
        55         5       -8.089313e-01
        56         5       -4.385734e-01
        57         5       -2.837601e-01
        58         5        1.151920e+00
        59         5       -1.129272e+00
        60         5       -6.392071e-01
        61         5        3.587908e-01
        62         5        8.480495e-01
        63         5        8.965219e-01
        64         5        1.898389e+00
        65         5       -7.615915e-01
        66         5       -2.831674e-01
        67         5       -5.045889e-01
        68         5        7.134026e-01
        69         5       -5.663689e-01
        70         5        1.171065e-01
        71         5        2.797470e-01
        72         5       -4.427826e-01
        73         5        9.095687e-01
        74         5        1.024572e+00
        75         5        1.349619e+00
        76         5        1.458791e+00
        77         5       -1.236709e-01
        78         5        5.515497e-01
        79         5       -8.811424e-01
        80         5        5.949642e-01
        81         5        1.516982e+00
        82         5        1.695520e-01
        83         5        3.663265e-01
        84         5       -4.300824e-01
        85         5       -1.077351e+00
        86         5       -1.558891e+00
        87         5        2.063961e-01
        88         5       -3.715556e-01
        89         5        1.023436e+00
        90         5       -1.249497e+00
        91         5       -1.097568e+00
        92         5        6.500851e-01
        93         5       -7.918814e-01
        94         5       -1.282276e-01
        95         5       -1.800592e-01
        96         5        6.292746e-01
        97         5       -1.835935e+00
        98         5       -1.149721e+00
        99         5        7.987456e-01
       100         5        1.649813e-02
;
param X_Original:=
    1       -7.051566e-01
    2       -1.231612e+00
    3        3.905995e+00
    4        1.301678e+00
    5       -1.103957e+00
    6       -3.833767e-01
    7       -5.048094e-01
    8       -6.547129e-01
    9        4.478564e-01
   10        4.310745e-01
   11        4.378566e-01
   12       -6.045679e-01
   13        1.271079e-01
   14       -2.372206e-01
   15        5.845862e-01
   16       -1.999083e+00
   17        1.762117e+00
   18       -2.623769e+00
   19       -1.023877e+00
   20        1.248370e+00
   21       -3.991878e-01
   22       -9.151644e-02
   23        1.353733e+00
   24       -1.005825e+00
   25        1.474589e-02
   26        9.363612e-01
   27        3.417404e-01
   28       -1.261652e+00
   29        1.479684e+00
   30       -1.519735e+00
   31       -3.891566e-01
   32        1.093073e+00
   33       -1.218577e+00
   34       -7.460957e-01
   35        2.277094e+00
   36        1.549745e-01
   37       -7.417624e-01
   38        9.452601e-01
   39        4.970242e-01
   40        4.460451e-01
   41        9.193377e-01
   42        1.686457e+00
   43       -1.299763e+00
   44        1.072920e+00
   45       -9.456357e-01
   46       -1.432496e+00
   47        8.550704e-01
   48        9.703905e-01
   49        1.149744e+00
   50        1.253521e-01
   51        1.717482e+00
   52        7.204867e-01
   53       -7.653450e-01
   54       -1.725638e+00
   55       -1.461704e+00
   56        1.150942e+00
   57        7.868630e-03
   58        3.727938e-01
   59        1.513764e+00
   60        9.271633e-01
   61        5.416563e-01
   62       -9.465137e-01
   63       -4.999006e-01
   64        3.618868e-01
   65       -7.401046e-01
   66        1.146976e+00
   67       -1.608668e+00
   68        1.771676e-01
   69       -1.194376e+00
   70        1.382622e+00
   71       -1.553982e-01
   72        2.638314e+00
   73       -3.199140e-01
   74       -9.366191e-01
   75        1.849318e+00
   76        4.948353e-01
   77        1.039877e+00
   78       -4.536535e-01
   79        6.056672e-01
   80        1.475783e+00
   81        9.084550e-01
   82        8.700816e-01
   83       -7.009192e-01
   84       -8.710007e-01
   85       -1.491699e+00
   86       -1.114179e+00
   87        1.521417e+00
   88        5.638896e-01
   89       -1.968677e-01
   90        3.818523e-01
   91        1.341976e+00
   92        5.425902e-01
   93        3.841471e+00
   94       -2.553067e+00
   95        1.035097e+00
   96        1.137786e+00
   97       -6.798459e-01
   98       -1.199847e+00
   99        4.926494e-01
  100        1.702737e+00
;
param outliervec_original :=
    1    1
    2    1
    3    0
    4    1
    5    1
    6    0
    7    1
    8    1
    9    1
   10    1
   11    1
   12    1
   13    1
   14    1
   15    1
   16    1
   17    1
   18    0
   19    0
   20    1
   21    1
   22    1
   23    1
   24    1
   25    1
   26    1
   27    1
   28    1
   29    1
   30    1
   31    1
   32    1
   33    1
   34    1
   35    0
   36    1
   37    1
   38    1
   39    1
   40    1
   41    1
   42    1
   43    1
   44    1
   45    1
   46    1
   47    1
   48    1
   49    1
   50    1
   51    1
   52    1
   53    1
   54    1
   55    0
   56    1
   57    1
   58    1
   59    1
   60    1
   61    1
   62    1
   63    1
   64    1
   65    1
   66    1
   67    1
   68    1
   69    1
   70    1
   71    1
   72    1
   73    1
   74    1
   75    1
   76    1
   77    1
   78    1
   79    0
   80    1
   81    0
   82    1
   83    1
   84    1
   85    0
   86    1
   87    1
   88    1
   89    1
   90    1
   91    1
   92    1
   93    0
   94    1
   95    1
   96    1
   97    1
   98    1
   99    1
  100    1
;
param d:= 55;
param r:=5;
param p:=0.900000;
param M:=1000;
param U:=
         1         1       -1.125314e+00
         2         1        2.692525e+00
         3         1       -1.312451e-01
         4         1        1.421641e+00
         5         1       -1.523943e+00
         6         1        3.026511e-01
         7         1       -6.727053e-02
         8         1       -4.215718e-01
         9         1        7.700003e-01
        10         1       -1.456683e-01
        11         1       -1.335776e+00
        12         1       -6.398579e-01
        13         1       -8.532224e-01
        14         1       -4.806857e-01
        15         1        3.861153e-02
        16         1       -7.420170e-01
        17         1        3.060784e-01
        18         1       -6.454135e-01
        19         1       -4.431484e-01
        20         1       -8.837144e-01
        21         1        1.389821e+00
        22         1       -2.334556e+00
        23         1       -1.786397e-01
        24         1        8.391272e-01
        25         1        2.053630e+00
        26         1        3.623897e-01
        27         1       -1.056183e+00
        28         1       -4.607271e-01
        29         1        4.580397e-01
        30         1        8.454700e-01
        31         1       -2.427368e-02
        32         1       -7.586311e-01
        33         1       -1.595212e+00
        34         1       -4.318776e-01
        35         1       -2.020350e-01
        36         1       -1.402201e+00
        37         1        7.470198e-01
        38         1       -9.842122e-01
        39         1        1.008281e+00
        40         1       -9.766290e-01
        41         1        4.351376e-01
        42         1       -7.012737e-01
        43         1        1.682690e+00
        44         1        8.166573e-01
        45         1       -4.796589e-01
        46         1        2.537551e-01
        47         1       -1.722552e+00
        48         1       -3.469914e-01
        49         1        4.740399e-01
        50         1        6.443810e-01
        51         1       -3.315685e-02
        52         1       -3.006702e-01
        53         1        1.100711e-01
        54         1       -1.078955e-01
        55         1        1.238035e-01
         1         2       -3.188493e-01
         2         2       -1.505870e+00
         3         2       -1.083458e+00
         4         2        1.018539e+00
         5         2       -3.477375e-01
         6         2       -4.523643e-01
         7         2        4.683249e-01
         8         2       -5.119032e-01
         9         2       -3.050048e+00
        10         2        9.385842e-01
        11         2        1.168971e-02
        12         2        3.267456e-01
        13         2       -3.350769e+00
        14         2       -5.322446e-01
        15         2       -6.681616e-01
        16         2       -9.513747e-01
        17         2       -3.673860e-01
        18         2       -6.142560e-01
        19         2       -1.136507e+00
        20         2       -6.328526e-01
        21         2       -6.535100e-01
        22         2       -9.533733e-01
        23         2       -2.737961e-01
        24         2        4.089373e-01
        25         2        1.611677e+00
        26         2        7.777174e-02
        27         2        8.887337e-01
        28         2       -1.409386e+00
        29         2       -2.897470e-01
        30         2       -4.045523e-02
        31         2        4.163612e-01
        32         2       -1.381848e+00
        33         2        4.134899e-01
        34         2       -6.760638e-01
        35         2        2.883936e-01
        36         2       -2.117825e-01
        37         2        2.127778e+00
        38         2        2.820176e-01
        39         2        2.009538e+00
        40         2        1.872636e+00
        41         2        1.661684e-01
        42         2        8.540196e-01
        43         2        7.815769e-01
        44         2       -7.002932e-01
        45         2       -1.099267e+00
        46         2       -8.533614e-01
        47         2       -8.455816e-01
        48         2        8.347112e-01
        49         2        1.582422e+00
        50         2        4.123126e-01
        51         2       -1.806094e+00
        52         2       -1.028995e+00
        53         2       -2.163214e-01
        54         2       -2.378189e-01
        55         2       -1.472846e-01
         1         3        3.716848e-01
         2         3       -4.646360e-01
         3         3       -3.260996e-01
         4         3       -8.697654e-02
         5         3        1.212055e+00
         6         3        1.185872e+00
         7         3        1.540027e+00
         8         3        5.802099e-02
         9         3        1.654108e+00
        10         3       -2.022664e+00
        11         3       -7.426950e-01
        12         3       -3.902702e-01
        13         3       -1.565466e+00
        14         3       -5.951891e-01
        15         3        9.872164e-01
        16         3       -1.370441e+00
        17         3       -2.281942e-01
        18         3       -4.288050e-01
        19         3       -5.687966e-01
        20         3       -4.696370e-01
        21         3        2.641457e+00
        22         3       -2.974843e-01
        23         3        8.016131e-01
        24         3       -9.217248e-01
        25         3        1.923470e+00
        26         3       -2.591742e+00
        27         3       -9.942835e-01
        28         3        2.129578e-01
        29         3       -1.395237e+00
        30         3       -1.604939e+00
        31         3       -9.743173e-01
        32         3       -1.180084e+00
        33         3        1.097750e+00
        34         3        1.577139e+00
        35         3       -1.790188e-01
        36         3        2.915206e-01
        37         3        4.815413e-01
        38         3       -5.106544e-01
        39         3        9.186069e-01
        40         3       -5.601860e-01
        41         3        7.364123e-01
        42         3        5.298614e-02
        43         3        1.028307e+00
        44         3       -5.985410e-02
        45         3        1.172835e+00
        46         3       -1.042048e+00
        47         3        4.244726e-01
        48         3       -3.525491e-01
        49         3        3.669457e-01
        50         3        2.988450e-01
        51         3       -1.163702e+00
        52         3        1.382239e-01
        53         3       -9.407111e-01
        54         3        1.753361e+00
        55         3       -1.045138e+00
         1         4        4.948213e-01
         2         4        1.957062e+00
         3         4       -2.705957e-01
         4         4       -5.964266e-01
         5         4        1.106722e+00
         6         4       -7.750056e-01
         7         4        2.118023e+00
         8         4       -5.765228e-01
         9         4       -7.351986e-01
        10         4        1.124692e-01
        11         4        1.697876e+00
        12         4        6.960764e-01
        13         4        1.978552e-01
        14         4        1.165568e+00
        15         4       -5.870433e-01
        16         4       -6.231371e-01
        17         4        1.647114e+00
        18         4       -3.024189e-01
        19         4       -1.630691e+00
        20         4        7.017203e-01
        21         4       -2.121331e-01
        22         4       -3.307387e-01
        23         4       -9.489881e-02
        24         4        1.322458e+00
        25         4        2.759271e-01
        26         4        4.282061e-01
        27         4       -1.121207e+00
        28         4       -6.140997e-01
        29         4       -5.756745e-01
        30         4        2.269476e-01
        31         4        1.174566e+00
        32         4       -9.179979e-02
        33         4        7.019616e-01
        34         4       -1.107474e+00
        35         4       -6.903038e-01
        36         4       -8.082201e-03
        37         4        1.122354e+00
        38         4        1.328409e-01
        39         4       -1.203160e+00
        40         4        2.693991e-01
        41         4        9.946023e-01
        42         4        1.334466e+00
        43         4       -4.132920e-02
        44         4       -1.580301e-01
        45         4        1.070498e+00
        46         4        5.794819e-01
        47         4        1.242196e+00
        48         4        7.583900e-01
        49         4       -1.686381e+00
        50         4       -7.265189e-01
        51         4       -1.314744e-01
        52         4        8.764574e-01
        53         4       -8.656359e-01
        54         4       -5.271610e-01
        55         4       -1.372062e-01
         1         5       -1.020902e+00
         2         5        7.276680e-02
         3         5        1.378462e-01
         4         5       -8.560358e-01
         5         5        1.428726e+00
         6         5       -1.143222e+00
         7         5        5.110686e-01
         8         5       -1.568262e+00
         9         5       -1.968353e-01
        10         5        6.789943e-01
        11         5       -9.164046e-03
        12         5        1.291366e+00
        13         5        1.962073e-01
        14         5       -1.625933e-01
        15         5        9.396767e-02
        16         5        5.304070e-01
        17         5        1.183301e+00
        18         5       -2.919168e-02
        19         5       -6.174716e-01
        20         5        9.043385e-01
        21         5       -7.099689e-01
        22         5        9.931077e-01
        23         5       -5.509099e-01
        24         5       -3.529073e-01
        25         5       -1.444651e+00
        26         5       -9.406077e-02
        27         5        6.418844e-01
        28         5       -8.089313e-01
        29         5       -2.837601e-01
        30         5        1.151920e+00
        31         5       -6.392071e-01
        32         5        3.587908e-01
        33         5        8.480495e-01
        34         5        8.965219e-01
        35         5        1.898389e+00
        36         5       -7.615915e-01
        37         5        7.134026e-01
        38         5       -5.663689e-01
        39         5        9.095687e-01
        40         5        1.024572e+00
        41         5        1.349619e+00
        42         5        1.458791e+00
        43         5       -1.236709e-01
        44         5        5.949642e-01
        45         5        1.516982e+00
        46         5        1.695520e-01
        47         5        3.663265e-01
        48         5       -4.300824e-01
        49         5       -1.077351e+00
        50         5       -1.558891e+00
        51         5       -3.715556e-01
        52         5       -1.249497e+00
        53         5        6.500851e-01
        54         5       -1.149721e+00
        55         5        7.987456e-01
;

param theta:=
    1        5.905366e-01
    2        3.093816e-01
    3        1.508930e-01
    4        1.462430e+00
    5       -1.388919e-01
;
param X_true:=
    1        1.583360e-01
    2        3.905995e+00
    3       -8.767861e-01
    4        3.881886e-01
    5        5.954278e-01
    6       -7.568939e-01
    7        3.364022e+00
    8       -1.023877e+00
    9       -1.287160e+00
   10       -3.067605e-02
   11        1.587022e+00
   12        5.029431e-01
   13       -1.514645e+00
   14        1.188805e+00
   15       -9.065124e-01
   16       -1.924279e+00
   17        2.277094e+00
   18       -1.074095e+00
   19       -2.998147e+00
   20        1.120877e-01
   21        8.055128e-01
   22       -2.340102e+00
   23       -1.315089e-01
   24        2.465989e+00
   25        2.605780e+00
   26        4.862755e-01
   27       -2.227627e+00
   28       -1.461704e+00
   29       -8.321563e-01
   30        4.164934e-01
   31        1.773964e+00
   32       -1.237668e+00
   33        2.603204e-01
   34       -1.970344e+00
   35       -1.330290e+00
   36       -7.556247e-01
   37        2.714378e+00
   38       -2.980819e-01
   39       -5.301166e-01
   40        1.697683e-01
   41        1.686578e+00
   42        1.607033e+00
   43        1.347396e+00
   44       -5.716694e-02
   45        9.084550e-01
   46        5.525020e-01
   47        5.509575e-01
   48        1.168963e+00
   49       -1.491699e+00
   50       -2.927794e-01
   51       -8.946129e-01
   52        9.802506e-01
   53       -1.500095e+00
   54       -4.839722e-01
   55       -4.417544e-01
;
param X:=
    1       -7.051566e-01
    2        3.905995e+00
    3        1.301678e+00
    4       -6.547129e-01
    5        4.478564e-01
    6        1.271079e-01
    7        1.762117e+00
    8       -1.023877e+00
    9        1.248370e+00
   10       -1.005825e+00
   11        1.474589e-02
   12        9.363612e-01
   13        1.479684e+00
   14       -3.891566e-01
   15        1.093073e+00
   16       -1.218577e+00
   17        2.277094e+00
   18        1.549745e-01
   19       -7.417624e-01
   20        9.193377e-01
   21        1.686457e+00
   22       -1.299763e+00
   23       -9.456357e-01
   24        9.703905e-01
   25        1.149744e+00
   26        1.253521e-01
   27       -7.653450e-01
   28       -1.461704e+00
   29        7.868630e-03
   30        3.727938e-01
   31        9.271633e-01
   32        5.416563e-01
   33       -9.465137e-01
   34       -4.999006e-01
   35        3.618868e-01
   36       -7.401046e-01
   37        1.771676e-01
   38       -1.194376e+00
   39       -3.199140e-01
   40       -9.366191e-01
   41        1.849318e+00
   42        4.948353e-01
   43        1.039877e+00
   44        1.475783e+00
   45        9.084550e-01
   46        8.700816e-01
   47       -7.009192e-01
   48       -8.710007e-01
   49       -1.491699e+00
   50       -1.114179e+00
   51        5.638896e-01
   52        3.818523e-01
   53        5.425902e-01
   54       -1.199847e+00
   55        4.926494e-01
;
param outliervec:=
    1    1
    2    0
    3    1
    4    1
    5    1
    6    1
    7    1
    8    0
    9    1
   10    1
   11    1
   12    1
   13    1
   14    1
   15    1
   16    1
   17    0
   18    1
   19    1
   20    1
   21    1
   22    1
   23    1
   24    1
   25    1
   26    1
   27    1
   28    0
   29    1
   30    1
   31    1
   32    1
   33    1
   34    1
   35    1
   36    1
   37    1
   38    1
   39    1
   40    1
   41    1
   42    1
   43    1
   44    1
   45    0
   46    1
   47    1
   48    1
   49    0
   50    1
   51    1
   52    1
   53    1
   54    1
   55    1
; 
param greedy_time :=         2.202850e-01
;